
Gurobi 11.0.2 (linux64) logging started Tue 03 Dec 2024 09:04:17 AM CET

Set parameter LogFile to value "./res/knapPI_11_50_1000/knapPI_11_50_1000_25/grb_dom.log"
Set parameter Presolve to value 0
Set parameter Aggregate to value 0
Set parameter Heuristics to value 0
Set parameter LPWarmStart to value 0
Set parameter NLPHeur to value 0
Set parameter PreDepRow to value 0
Set parameter PreDual to value 0
Set parameter RINS to value 0
Set parameter Symmetry to value 0
Set parameter NodeLimit to value 1
Set parameter Threads to value 1

Gurobi 11.0.2 (linux64) logging started Tue 03 Dec 2024 09:04:19 AM CET

Set parameter LogFile to value "./res/knapPI_11_50_1000/knapPI_11_50_1000_25/grb_dom.log"
Set parameter NLPHeur to value 0
Set parameter LPWarmStart to value 0
Set parameter PreDepRow to value 0
Set parameter Symmetry to value 0
Set parameter Presolve to value 0
Gurobi Optimizer version 11.0.2 build v11.0.2rc0 (linux64 - "Pop!_OS 20.04 LTS")

CPU model: Intel(R) Core(TM) i7-8650U CPU @ 1.90GHz, instruction set [SSE2|AVX|AVX2]
Thread count: 4 physical cores, 4 logical processors, using up to 1 threads

Optimize a model with 19922 rows, 50 columns and 412162 nonzeros
Model fingerprint: 0x3d64cf72
Variable types: 0 continuous, 50 integer (50 binary)
Coefficient statistics:
  Matrix range     [1e+00, 2e+03]
  Objective range  [2e+01, 2e+03]
  Bounds range     [0e+00, 0e+00]
  RHS range        [6e+03, 6e+03]
Variable types: 0 continuous, 50 integer (50 binary)

Root relaxation: objective 2.633457e+04, 1 iterations, 0.07 seconds (0.01 work units)

    Nodes    |    Current Node    |     Objective Bounds      |     Work
 Expl Unexpl |  Obj  Depth IntInf | Incumbent    BestBd   Gap | It/Node Time

     0     0 26334.5714    0    1          - 26334.5714      -     -    0s
     0     0 26334.5714    0    1          - 26334.5714      -     -    0s
     0     0 26334.5714    0    1          - 26334.5714      -     -    0s
     0     0 26334.5714    0    1          - 26334.5714      -     -    1s
     0     0 26334.5714    0    4          - 26334.5714      -     -    1s
     0     0 26334.5714    0    3          - 26334.5714      -     -    1s
     0     0 26332.0000    0    1          - 26332.0000      -     -    1s
     0     0 26332.0000    0    1          - 26332.0000      -     -    2s
     0     0 26332.0000    0    2          - 26332.0000      -     -    2s
*    0     0               0    26332.000000 26332.0000  0.00%     -    2s

Cutting planes:
  Cover: 1
  MIR: 1
  RLT: 2

Explored 1 nodes (28 simplex iterations) in 2.64 seconds (1.65 work units)
Thread count was 1 (of 4 available processors)

Solution count 1: 26332 

Optimal solution found (tolerance 1.00e-04)
Best objective 2.633200000000e+04, best bound 2.633200000000e+04, gap 0.0000%

User-callback calls 1280, time in user-callback 0.01 sec
opt = true
obj = 26332.0
nb_dom_cuts = 19921
solved_time = 2.6424
opt_val = 26332.0
